
  22   10
  10   10   10   10   10   10   10   10   10   10

   0   0   0   0   0   0   0   0   0   0   0   4 2 3 12 21 
  10   0   0   0   0   0  10   0   0   0   0   2 20 4 
  10   0   0   0   0   0   0   0  10   0   0   2 20 6 
   7   0   0   0   0   0   0   0  10   0   0   1 5 
   2   0   0   0   0   0   0   0   0   0  10   1 6 
   3  10   0   0   0   0   0   0   0   0   0   1 7 
   5   0  10   0   0   0   0   0   0   0   0   1 8 
  10   0   0   0   0   0   0   0  10   0   0   1 9 
   9   0   0   0   0  10   0   0   0   0   0   1 10 
   6   0   0   0   0   0   0   0   0   0  10   2 16 11 
   9   0   0   0   0   0   0  10   0   0   0   2 19 13 
   4   0  10   0   0   0   0   0   0   0   0   2 16 13 
   7   0   0   0   0   0   0  10   0   0   0   1 14 
   9   0   0   0   0   0   0   0   0   0  10   1 15 
   9   0   0   0   0   0   0   0   0   0  10   1 17 
   7  10   0   0   0   0   0   0   0   0   0   1 17 
   1   0   0  10   0   0   0   0   0   0   0   1 18 
   4   0   0   0   0   0   0  10   0   0   0   1 22
   2  10   0   0   0   0   0   0   0   0   0   1 22
   9   0   0   0   0   0  10   0   0   0   0   1 22
   5   0   0   0   0   0   0   0  10   0   0   1 22
   0   0   0   0   0   0   0   0   0   0   0   0 
